  50 

  42   9   6  35  22  11  21  33  43  36  41  14  47   9  47  23  25  14  47   8  23  25  32  16  27  24  30  48  21  49  45   6  12  45  20  13   4  35  42  29  29   2  39  10  25  46  19  46  13  30

 407

  20  10  24  13  24  23  17  12  23  12  17   8  25   2  16   1  16  11  23  18  19  15   2  12  17  22  11   6   3  10  22  18  15   5  15  10  16  12  24   6   3  18  19   2   6  23  14   3  22   4

